37 37
27
3 3 34 0
3 4 23 22
3 5 26 0
3 6 34 31
3 7 34 3
3 8 0 29
3 9 23 13
3 11 23 26
3 12 0 17
3 13 23 0
3 14 26 23
3 17 0 0
3 18 26 5
3 21 29 10
4 3 3 10
4 4 19 27
4 5 19 22
4 6 19 31
4 10 3 0
4 22 19 0
4 24 3 13
5 3 32 28
5 4 32 24
5 6 29 31
5 10 29 0
5 14 32 10
12 37 7 0
